(declare-const x String)
(declare-const y String)
(assert (str.in.re x (re.+ (re.union (re.* (str.to.re "/")) (str.to.re "")))))
(assert (str.in.re y (re.* (str.to.re "("))))
(assert (= 11 (str.len y)))
(assert (not (= x y)))
(assert (= (str.len x) (str.len x)))
(check-sat)
(get-model)
